p tw 105 13651 2 
1 3 
1 4 
1 5 
1 6 
1 7 
1 8 
1 9 
1 10 
1 11 
1 12 
1 13 
1 14 
1 15 
1 16 
1 17 
1 18 
1 19 
1 20 
1 21 
1 22 
1 23 
1 24 
1 25 
1 26 
1 27 
2 3 
2 4 
2 5 
2 6 
2 7 
2 8 
2 9 
2 10 
2 11 
2 12 
2 13 
2 14 
2 15 
2 28 
2 29 
2 30 
2 31 
2 32 
2 33 
2 34 
2 35 
2 36 
2 37 
2 38 
2 39 
3 4 
3 5 
3 6 
3 7 
3 8 
3 9 
3 10 
3 11 
3 12 
3 13 
3 14 
3 16 
3 28 
3 40 
3 41 
3 42 
3 43 
3 44 
3 45 
3 46 
3 47 
3 48 
3 49 
3 50 
4 5 
4 6 
4 7 
4 8 
4 9 
4 10 
4 11 
4 12 
4 13 
4 14 
4 17 
4 29 
4 40 
4 51 
4 52 
4 53 
4 54 
4 55 
4 56 
4 57 
4 58 
4 59 
4 60 
5 6 
5 7 
5 8 
5 9 
5 10 
5 11 
5 12 
5 13 
5 14 
5 18 
5 30 
5 41 
5 51 
5 61 
5 62 
5 63 
5 64 
5 65 
5 66 
5 67 
5 68 
5 69 
6 7 
6 8 
6 9 
6 10 
6 11 
6 12 
6 13 
6 14 
6 19 
6 31 
6 42 
6 52 
6 61 
6 70 
6 71 
6 72 
6 73 
6 74 
6 75 
6 76 
6 77 
7 8 
7 9 
7 10 
7 11 
7 12 
7 13 
7 14 
7 20 
7 32 
7 43 
7 53 
7 62 
7 70 
7 78 
7 79 
7 80 
7 81 
7 82 
7 83 
7 84 
8 9 
8 10 
8 11 
8 12 
8 13 
8 14 
8 21 
8 33 
8 44 
8 54 
8 63 
8 71 
8 78 
8 85 
8 86 
8 87 
8 88 
8 89 
8 90 
9 10 
9 11 
9 12 
9 13 
9 14 
9 22 
9 34 
9 45 
9 55 
9 64 
9 72 
9 79 
9 85 
9 91 
9 92 
9 93 
9 94 
9 95 
10 11 
10 12 
10 13 
10 14 
10 23 
10 35 
10 46 
10 56 
10 65 
10 73 
10 80 
10 86 
10 91 
10 96 
10 97 
10 98 
10 99 
11 12 
11 13 
11 14 
11 24 
11 36 
11 47 
11 57 
11 66 
11 74 
11 81 
11 87 
11 92 
11 96 
11 100 
11 101 
11 102 
12 13 
12 14 
12 25 
12 37 
12 48 
12 58 
12 67 
12 75 
12 82 
12 88 
12 93 
12 97 
12 100 
12 103 
12 104 
13 14 
13 26 
13 38 
13 49 
13 59 
13 68 
13 76 
13 83 
13 89 
13 94 
13 98 
13 101 
13 103 
13 105 
14 27 
14 39 
14 50 
14 60 
14 69 
14 77 
14 84 
14 90 
14 95 
14 99 
14 102 
14 104 
14 105 
15 16 
15 17 
15 18 
15 19 
15 20 
15 21 
15 22 
15 23 
15 24 
15 25 
15 26 
15 27 
15 28 
15 29 
15 30 
15 31 
15 32 
15 33 
15 34 
15 35 
15 36 
15 37 
15 38 
15 39 
16 17 
16 18 
16 19 
16 20 
16 21 
16 22 
16 23 
16 24 
16 25 
16 26 
16 27 
16 28 
16 40 
16 41 
16 42 
16 43 
16 44 
16 45 
16 46 
16 47 
16 48 
16 49 
16 50 
17 18 
17 19 
17 20 
17 21 
17 22 
17 23 
17 24 
17 25 
17 26 
17 27 
17 29 
17 40 
17 51 
17 52 
17 53 
17 54 
17 55 
17 56 
17 57 
17 58 
17 59 
17 60 
18 19 
18 20 
18 21 
18 22 
18 23 
18 24 
18 25 
18 26 
18 27 
18 30 
18 41 
18 51 
18 61 
18 62 
18 63 
18 64 
18 65 
18 66 
18 67 
18 68 
18 69 
19 20 
19 21 
19 22 
19 23 
19 24 
19 25 
19 26 
19 27 
19 31 
19 42 
19 52 
19 61 
19 70 
19 71 
19 72 
19 73 
19 74 
19 75 
19 76 
19 77 
20 21 
20 22 
20 23 
20 24 
20 25 
20 26 
20 27 
20 32 
20 43 
20 53 
20 62 
20 70 
20 78 
20 79 
20 80 
20 81 
20 82 
20 83 
20 84 
21 22 
21 23 
21 24 
21 25 
21 26 
21 27 
21 33 
21 44 
21 54 
21 63 
21 71 
21 78 
21 85 
21 86 
21 87 
21 88 
21 89 
21 90 
22 23 
22 24 
22 25 
22 26 
22 27 
22 34 
22 45 
22 55 
22 64 
22 72 
22 79 
22 85 
22 91 
22 92 
22 93 
22 94 
22 95 
23 24 
23 25 
23 26 
23 27 
23 35 
23 46 
23 56 
23 65 
23 73 
23 80 
23 86 
23 91 
23 96 
23 97 
23 98 
23 99 
24 25 
24 26 
24 27 
24 36 
24 47 
24 57 
24 66 
24 74 
24 81 
24 87 
24 92 
24 96 
24 100 
24 101 
24 102 
25 26 
25 27 
25 37 
25 48 
25 58 
25 67 
25 75 
25 82 
25 88 
25 93 
25 97 
25 100 
25 103 
25 104 
26 27 
26 38 
26 49 
26 59 
26 68 
26 76 
26 83 
26 89 
26 94 
26 98 
26 101 
26 103 
26 105 
27 39 
27 50 
27 60 
27 69 
27 77 
27 84 
27 90 
27 95 
27 99 
27 102 
27 104 
27 105 
28 29 
28 30 
28 31 
28 32 
28 33 
28 34 
28 35 
28 36 
28 37 
28 38 
28 39 
28 40 
28 41 
28 42 
28 43 
28 44 
28 45 
28 46 
28 47 
28 48 
28 49 
28 50 
29 30 
29 31 
29 32 
29 33 
29 34 
29 35 
29 36 
29 37 
29 38 
29 39 
29 40 
29 51 
29 52 
29 53 
29 54 
29 55 
29 56 
29 57 
29 58 
29 59 
29 60 
30 31 
30 32 
30 33 
30 34 
30 35 
30 36 
30 37 
30 38 
30 39 
30 41 
30 51 
30 61 
30 62 
30 63 
30 64 
30 65 
30 66 
30 67 
30 68 
30 69 
31 32 
31 33 
31 34 
31 35 
31 36 
31 37 
31 38 
31 39 
31 42 
31 52 
31 61 
31 70 
31 71 
31 72 
31 73 
31 74 
31 75 
31 76 
31 77 
32 33 
32 34 
32 35 
32 36 
32 37 
32 38 
32 39 
32 43 
32 53 
32 62 
32 70 
32 78 
32 79 
32 80 
32 81 
32 82 
32 83 
32 84 
33 34 
33 35 
33 36 
33 37 
33 38 
33 39 
33 44 
33 54 
33 63 
33 71 
33 78 
33 85 
33 86 
33 87 
33 88 
33 89 
33 90 
34 35 
34 36 
34 37 
34 38 
34 39 
34 45 
34 55 
34 64 
34 72 
34 79 
34 85 
34 91 
34 92 
34 93 
34 94 
34 95 
35 36 
35 37 
35 38 
35 39 
35 46 
35 56 
35 65 
35 73 
35 80 
35 86 
35 91 
35 96 
35 97 
35 98 
35 99 
36 37 
36 38 
36 39 
36 47 
36 57 
36 66 
36 74 
36 81 
36 87 
36 92 
36 96 
36 100 
36 101 
36 102 
37 38 
37 39 
37 48 
37 58 
37 67 
37 75 
37 82 
37 88 
37 93 
37 97 
37 100 
37 103 
37 104 
38 39 
38 49 
38 59 
38 68 
38 76 
38 83 
38 89 
38 94 
38 98 
38 101 
38 103 
38 105 
39 50 
39 60 
39 69 
39 77 
39 84 
39 90 
39 95 
39 99 
39 102 
39 104 
39 105 
40 41 
40 42 
40 43 
40 44 
40 45 
40 46 
40 47 
40 48 
40 49 
40 50 
40 51 
40 52 
40 53 
40 54 
40 55 
40 56 
40 57 
40 58 
40 59 
40 60 
41 42 
41 43 
41 44 
41 45 
41 46 
41 47 
41 48 
41 49 
41 50 
41 51 
41 61 
41 62 
41 63 
41 64 
41 65 
41 66 
41 67 
41 68 
41 69 
42 43 
42 44 
42 45 
42 46 
42 47 
42 48 
42 49 
42 50 
42 52 
42 61 
42 70 
42 71 
42 72 
42 73 
42 74 
42 75 
42 76 
42 77 
43 44 
43 45 
43 46 
43 47 
43 48 
43 49 
43 50 
43 53 
43 62 
43 70 
43 78 
43 79 
43 80 
43 81 
43 82 
43 83 
43 84 
44 45 
44 46 
44 47 
44 48 
44 49 
44 50 
44 54 
44 63 
44 71 
44 78 
44 85 
44 86 
44 87 
44 88 
44 89 
44 90 
45 46 
45 47 
45 48 
45 49 
45 50 
45 55 
45 64 
45 72 
45 79 
45 85 
45 91 
45 92 
45 93 
45 94 
45 95 
46 47 
46 48 
46 49 
46 50 
46 56 
46 65 
46 73 
46 80 
46 86 
46 91 
46 96 
46 97 
46 98 
46 99 
47 48 
47 49 
47 50 
47 57 
47 66 
47 74 
47 81 
47 87 
47 92 
47 96 
47 100 
47 101 
47 102 
48 49 
48 50 
48 58 
48 67 
48 75 
48 82 
48 88 
48 93 
48 97 
48 100 
48 103 
48 104 
49 50 
49 59 
49 68 
49 76 
49 83 
49 89 
49 94 
49 98 
49 101 
49 103 
49 105 
50 60 
50 69 
50 77 
50 84 
50 90 
50 95 
50 99 
50 102 
50 104 
50 105 
51 52 
51 53 
51 54 
51 55 
51 56 
51 57 
51 58 
51 59 
51 60 
51 61 
51 62 
51 63 
51 64 
51 65 
51 66 
51 67 
51 68 
51 69 
52 53 
52 54 
52 55 
52 56 
52 57 
52 58 
52 59 
52 60 
52 61 
52 70 
52 71 
52 72 
52 73 
52 74 
52 75 
52 76 
52 77 
53 54 
53 55 
53 56 
53 57 
53 58 
53 59 
53 60 
53 62 
53 70 
53 78 
53 79 
53 80 
53 81 
53 82 
53 83 
53 84 
54 55 
54 56 
54 57 
54 58 
54 59 
54 60 
54 63 
54 71 
54 78 
54 85 
54 86 
54 87 
54 88 
54 89 
54 90 
55 56 
55 57 
55 58 
55 59 
55 60 
55 64 
55 72 
55 79 
55 85 
55 91 
55 92 
55 93 
55 94 
55 95 
56 57 
56 58 
56 59 
56 60 
56 65 
56 73 
56 80 
56 86 
56 91 
56 96 
56 97 
56 98 
56 99 
57 58 
57 59 
57 60 
57 66 
57 74 
57 81 
57 87 
57 92 
57 96 
57 100 
57 101 
57 102 
58 59 
58 60 
58 67 
58 75 
58 82 
58 88 
58 93 
58 97 
58 100 
58 103 
58 104 
59 60 
59 68 
59 76 
59 83 
59 89 
59 94 
59 98 
59 101 
59 103 
59 105 
60 69 
60 77 
60 84 
60 90 
60 95 
60 99 
60 102 
60 104 
60 105 
61 62 
61 63 
61 64 
61 65 
61 66 
61 67 
61 68 
61 69 
61 70 
61 71 
61 72 
61 73 
61 74 
61 75 
61 76 
61 77 
62 63 
62 64 
62 65 
62 66 
62 67 
62 68 
62 69 
62 70 
62 78 
62 79 
62 80 
62 81 
62 82 
62 83 
62 84 
63 64 
63 65 
63 66 
63 67 
63 68 
63 69 
63 71 
63 78 
63 85 
63 86 
63 87 
63 88 
63 89 
63 90 
64 65 
64 66 
64 67 
64 68 
64 69 
64 72 
64 79 
64 85 
64 91 
64 92 
64 93 
64 94 
64 95 
65 66 
65 67 
65 68 
65 69 
65 73 
65 80 
65 86 
65 91 
65 96 
65 97 
65 98 
65 99 
66 67 
66 68 
66 69 
66 74 
66 81 
66 87 
66 92 
66 96 
66 100 
66 101 
66 102 
67 68 
67 69 
67 75 
67 82 
67 88 
67 93 
67 97 
67 100 
67 103 
67 104 
68 69 
68 76 
68 83 
68 89 
68 94 
68 98 
68 101 
68 103 
68 105 
69 77 
69 84 
69 90 
69 95 
69 99 
69 102 
69 104 
69 105 
70 71 
70 72 
70 73 
70 74 
70 75 
70 76 
70 77 
70 78 
70 79 
70 80 
70 81 
70 82 
70 83 
70 84 
71 72 
71 73 
71 74 
71 75 
71 76 
71 77 
71 78 
71 85 
71 86 
71 87 
71 88 
71 89 
71 90 
72 73 
72 74 
72 75 
72 76 
72 77 
72 79 
72 85 
72 91 
72 92 
72 93 
72 94 
72 95 
73 74 
73 75 
73 76 
73 77 
73 80 
73 86 
73 91 
73 96 
73 97 
73 98 
73 99 
74 75 
74 76 
74 77 
74 81 
74 87 
74 92 
74 96 
74 100 
74 101 
74 102 
75 76 
75 77 
75 82 
75 88 
75 93 
75 97 
75 100 
75 103 
75 104 
76 77 
76 83 
76 89 
76 94 
76 98 
76 101 
76 103 
76 105 
77 84 
77 90 
77 95 
77 99 
77 102 
77 104 
77 105 
78 79 
78 80 
78 81 
78 82 
78 83 
78 84 
78 85 
78 86 
78 87 
78 88 
78 89 
78 90 
79 80 
79 81 
79 82 
79 83 
79 84 
79 85 
79 91 
79 92 
79 93 
79 94 
79 95 
80 81 
80 82 
80 83 
80 84 
80 86 
80 91 
80 96 
80 97 
80 98 
80 99 
81 82 
81 83 
81 84 
81 87 
81 92 
81 96 
81 100 
81 101 
81 102 
82 83 
82 84 
82 88 
82 93 
82 97 
82 100 
82 103 
82 104 
83 84 
83 89 
83 94 
83 98 
83 101 
83 103 
83 105 
84 90 
84 95 
84 99 
84 102 
84 104 
84 105 
85 86 
85 87 
85 88 
85 89 
85 90 
85 91 
85 92 
85 93 
85 94 
85 95 
86 87 
86 88 
86 89 
86 90 
86 91 
86 96 
86 97 
86 98 
86 99 
87 88 
87 89 
87 90 
87 92 
87 96 
87 100 
87 101 
87 102 
88 89 
88 90 
88 93 
88 97 
88 100 
88 103 
88 104 
89 90 
89 94 
89 98 
89 101 
89 103 
89 105 
90 95 
90 99 
90 102 
90 104 
90 105 
91 92 
91 93 
91 94 
91 95 
91 96 
91 97 
91 98 
91 99 
92 93 
92 94 
92 95 
92 96 
92 100 
92 101 
92 102 
93 94 
93 95 
93 97 
93 100 
93 103 
93 104 
94 95 
94 98 
94 101 
94 103 
94 105 
95 99 
95 102 
95 104 
95 105 
96 97 
96 98 
96 99 
96 100 
96 101 
96 102 
97 98 
97 99 
97 100 
97 103 
97 104 
98 99 
98 101 
98 103 
98 105 
99 102 
99 104 
99 105 
100 101 
100 102 
100 103 
100 104 
101 102 
101 103 
101 105 
102 104 
102 105 
103 104 
103 105 
104 105 
